
Gurobi 12.0.2 (win64) logging started Fri Oct 24 16:55:15 2025

Set parameter LogFile to value "C:\Ioana\_uni\honours\slp\algorithm\Main_files\results\fixing paracetamol degradation (updated model)\Task_001_Sample002_irr_gurobi.log"
Gurobi Optimizer version 12.0.2 build v12.0.2rc0 (win64 - Windows 11.0 (26100.2))

CPU model: Intel(R) Core(TM) Ultra 5 125H, instruction set [SSE2|AVX|AVX2]
Thread count: 14 physical cores, 18 logical processors, using up to 18 threads

Non-default parameters:
TimeLimit  2200

Optimize a model with 47228 rows, 34504 columns and 146700 nonzeros
Model fingerprint: 0xd5489903
Variable types: 17258 continuous, 17246 integer (17246 binary)
Coefficient statistics:
  Matrix range     [1e-04, 8e+04]
  Objective range  [1e-04, 9e-01]
  Bounds range     [1e+00, 1e+03]
  RHS range        [1e+00, 1e+00]
Presolve removed 30776 rows and 21547 columns
Presolve time: 0.43s
Presolved: 16452 rows, 12957 columns, 54697 nonzeros
Variable types: 6411 continuous, 6546 integer (6546 binary)

Root relaxation: objective 1.880156e-02, 4085 iterations, 0.57 seconds (0.91 work units)

    Nodes    |    Current Node    |     Objective Bounds      |     Work
 Expl Unexpl |  Obj  Depth IntInf | Incumbent    BestBd   Gap | It/Node Time

     0     0    0.01880    0    7          -    0.01880      -     -    1s
H    0     0                       4.4371147    0.01880   100%     -    1s
H    0     0                       1.7865889    0.01880  98.9%     -    1s
     0     0    1.78659    0   22    1.78659    1.78659  0.00%     -    1s

Cutting planes:
  Cover: 5
  Implied bound: 2
  Flow cover: 3
  RLT: 1
  Relax-and-lift: 2

Explored 1 nodes (6376 simplex iterations) in 1.79 seconds (2.04 work units)
Thread count was 18 (of 18 available processors)

Solution count 2: 1.78659 4.43711 

Optimal solution found (tolerance 1.00e-04)
Best objective 1.786588893786e+00, best bound 1.786588893786e+00, gap 0.0000%
